53
120
84	1
83	1
82	2
81	2
79	2
78	3
77	4
76	3
75	1
74	1
73	1
72	1
71	2
70	2
69	2
68	4
67	2
66	2
65	3
64	1
63	5
62	1
61	2
60	2
59	1
58	4
57	1
56	1
55	4
54	2
52	2
50	3
49	1
47	2
46	1
44	1
42	1
41	4
40	1
39	2
38	1
37	1
36	2
35	2
34	1
33	1
31	2
30	1
29	2
27	1
26	2
25	2
24	1
